c This is an instance of the exact track of PACE 2020 Challenge, see https://pacechallenge.org/2020/ 
c TYPE: generated 
c ORIGIN: Python networkx package 
c DESCRIPTION: A cycle graph on p nodes with chords joining each vertex x to its inverse modulo p. This graph is a (mildly explicit) 3-regular expander. Generated using chordal_cycle_graph function from Python’s networkx package 
p tdp 191 283
1 2
1 3
2 143
3 4
4 5
4 6
5 7
5 8
6 142
6 144
7 9
7 10
8 101
8 104
9 11
9 12
10 79
10 72
11 13
11 14
12 176
12 184
13 15
13 16
14 57
14 60
15 17
15 18
16 129
16 132
17 19
17 20
18 43
18 46
19 21
19 22
20 133
20 40
21 23
21 24
22 156
22 87
23 25
23 26
24 36
24 172
25 27
25 28
26 29
26 32
27 29
27 30
28 178
28 180
29 31
30 71
30 74
31 82
31 84
32 33
32 34
33 35
33 36
34 76
34 78
35 37
35 38
36 170
37 39
37 40
38 86
38 157
39 41
39 42
40 136
41 43
41 44
42 140
42 52
43 45
44 150
44 135
45 48
45 158
46 47
46 48
47 49
47 50
48 155
49 51
49 52
50 134
50 151
51 53
51 54
52 122
53 55
53 56
54 148
54 130
55 57
55 58
56 118
56 112
57 59
58 126
58 160
59 65
59 68
60 61
60 62
61 63
61 64
62 158
62 118
63 65
63 66
64 130
64 100
65 67
66 114
66 163
67 96
67 108
68 69
68 70
69 71
69 72
70 187
70 177
71 73
72 82
73 74
73 76
74 75
75 172
75 174
76 77
77 183
77 191
78 79
78 80
79 81
80 85
80 88
81 164
81 166
82 83
83 180
83 182
84 85
84 86
85 87
86 191
87 179
88 89
88 90
89 91
89 92
90 104
90 106
91 92
91 93
92 94
93 161
93 164
94 95
94 96
95 97
95 98
96 106
97 99
97 100
98 162
98 116
99 101
99 102
100 126
101 103
102 112
102 148
103 122
103 142
104 105
105 175
105 171
106 107
107 168
107 169
108 109
108 110
109 111
109 112
110 185
110 128
111 113
111 114
113 115
113 116
114 124
115 117
115 118
116 131
117 119
117 120
119 121
119 122
120 128
120 150
121 123
121 124
123 125
123 126
124 146
125 127
125 128
127 129
127 130
129 131
131 186
132 133
132 134
133 135
134 188
135 188
136 137
136 138
137 139
138 149
138 152
139 140
140 141
141 153
141 154
142 143
143 167
144 145
144 146
145 147
145 148
146 166
147 149
147 150
149 151
151 156
152 153
154 155
154 156
155 157
157 189
158 159
159 189
159 187
160 161
160 162
161 163
162 184
163 168
164 165
165 169
165 170
166 167
167 177
168 169
170 171
171 178
172 173
173 190
173 183
174 175
174 176
175 177
176 181
178 179
179 190
180 181
181 182
182 183
184 185
185 186
186 187
188 189
190 191
